# Input file for Orca single point energy calculation.
! RIJK RI-PWPB95 D3BJ def2-TZVP def2/JK def2-TZVP/C TIGHTSCF
%MaxCore 900
%pal nprocs 5 end

* xyz +1 2
C -3.517209 0.073553 -0.882932
C -2.301962 0.517845 -1.375272
C -1.21687 0.668107 -0.525476
C -1.354974 0.363913 0.822493
C -2.567207 -0.092743 1.308727
C -3.670666 -0.250138 0.466392
N -4.910917 -0.642154 0.975254
O -0.052642 1.188298 -1.057515
C 1.157437 0.672421 -0.634722
C 1.370765 -0.687995 -0.454339
C 2.623737 -1.150566 -0.093076
C 3.693767 -0.27105 0.089603
C 3.464329 1.091499 -0.109716
C 2.208556 1.558974 -0.457865
N 4.972699 -0.749281 0.383491
H -4.357692 -0.030714 -1.558233
H -2.186523 0.759656 -2.422489
H -0.51308 0.482245 1.489424
H -2.663526 -0.31842 2.363924
H -4.853118 -1.204798 1.808438
H -5.511878 -1.081543 0.297023
H 0.555576 -1.383449 -0.593693
H 2.778567 -2.214957 0.036374
H 4.277231 1.796143 0.016691
H 2.034388 2.615831 -0.603353
H 4.979307 -1.628934 0.873663
H 5.561905 -0.081744 0.854063
*