# Input file for Orca single point energy calculation.
! RIJK RI-PWPB95 D3BJ def2-TZVP def2/JK def2-TZVP/C TIGHTSCF
%MaxCore 900
%pal nprocs 5 end

* xyz 0 1
C -1.35312 -1.069507 0.124505
N -0.045894 -0.435088 0.061251
C 1.153074 -1.06512 0.181192
C 2.120863 -0.088119 0.061994
N 1.544525 1.12011 -0.127242
C 0.229143 0.900163 -0.126324
C -0.753328 1.943816 -0.300474
O -1.964625 1.781612 -0.305385
H -1.896847 -0.907894 -0.800433
H -1.212187 -2.133479 0.285739
H -1.937187 -0.649526 0.936598
H 1.219621 -2.127867 0.337178
H 3.190268 -0.209028 0.104872
H -0.294305 2.939929 -0.433471
*