# Input file for Orca calculation for diamine
!B97-3c LARGEPRINT Opt Freq
%MaxCore 900
%pal nprocs 5 end

* xyz 0 1
C      2.088091   -0.714971   -1.256625
C      3.250836   -1.115863   -0.590507
C      3.607646   -0.544629    0.632304
C      2.836695    0.508611    1.126894
C      1.673059    0.915247    0.466628
C      1.280238    0.299165   -0.728348
C      0.027826    0.742139   -1.450099
C     -1.250926    0.482620   -0.686469
C     -2.056954    1.545424   -0.261097
C     -3.243895    1.300966    0.437340
C     -3.628126   -0.001574    0.760829
C     -2.857469   -1.062652    0.282812
C     -1.669727   -0.826372   -0.416327
N     -4.872169   -0.243935    1.356028
N      4.830483   -0.867854    1.233003
H      1.827796   -1.194047   -2.197460
H      3.876590   -1.883088   -1.038202
H      3.132801    1.023531    2.036633
H      1.078963    1.722630    0.888709
H      0.127095    1.811216   -1.679890
H     -0.050085    0.242729   -2.424830
H     -1.776096    2.572903   -0.479828
H     -3.866868    2.142333    0.728268
H     -3.172726   -2.088353    0.453090
H     -1.077103   -1.672992   -0.755445
H     -4.928043   -1.140712    1.828237
H     -5.199540    0.519448    1.939222
H      5.151253   -1.807403    1.022302
H      4.860356   -0.664517    2.227022
*