# Input file for Orca calculation for diamine
!B97-3c LARGEPRINT Opt Freq
%MaxCore 900
%pal nprocs 5 end

* xyz 0 1
C     -2.738393   -2.000710   -1.988438
C     -1.821889   -2.722192   -1.229532
C     -0.816170   -2.054738   -0.521832
C     -0.705723   -0.651910   -0.553261
C     -1.640746    0.050219   -1.337217
C     -2.647357   -0.613751   -2.044880
C      0.347397    0.070384    0.191201
C      0.845353   -0.371792    1.419793
C      1.842187    0.360229    2.064764
C      2.322584    1.519944    1.473573
C      1.774486    1.897993    0.258214
N      0.803250    1.209694   -0.389925
C      2.238859    3.123904   -0.424014
O      3.106462    3.853878    0.042106
H     -3.518444   -2.518585   -2.540209
H     -1.883340   -3.806906   -1.191888
H     -0.104668   -2.654054    0.041686
H     -1.589291    1.136359   -1.398033
H     -3.356027   -0.044062   -2.640376
H      0.456759   -1.269246    1.891246
H      2.235565    0.027891    3.021709
H      3.098013    2.113418    1.947107
H      1.751132    3.344034   -1.388157
*