# Input file for Orca calculation for diamine
!B97-3c LARGEPRINT Opt Freq
%MaxCore 900
%pal nprocs 5 end

* xyz 0 1
C     -2.899642    0.005132   -0.546846
C     -1.885619   -0.939327   -0.577050
C     -0.571488   -0.547473   -0.286439
C      0.489761   -1.463435   -0.303257
C      1.769683   -1.021878   -0.007985
C      1.925880    0.320410    0.290981
N      0.919587    1.223709    0.314024
C     -0.311911    0.803549    0.030881
N     -1.295504    1.701981    0.056569
C     -2.555222    1.302609   -0.226855
C      3.261467    0.863016    0.615796
O      4.268901    0.164646    0.634758
H     -3.927519   -0.261144   -0.765946
H     -2.119938   -1.971274   -0.825205
H      0.323680   -2.510461   -0.543551
H      2.616936   -1.700121   -0.010592
H     -3.305325    2.088134   -0.186782
H      3.296273    1.941928    0.841556
*