# Input file for Orca single point energy calculation.
! RIJK RI-PWPB95 D3BJ def2-TZVP def2/JK def2-TZVP/C TIGHTSCF
%MaxCore 900
%pal nprocs 5 end

* xyz +1 2
C -2.033457 -1.00451 -0.815764
N -1.063874 -0.103366 -0.219017
C 0.287979 -0.315194 -0.115575
C 1.11152 -1.364765 -0.513215
C 2.45982 -1.238726 -0.23952
C 2.984534 -0.107027 0.409779
C 2.172161 0.933862 0.804209
C 0.803585 0.833712 0.540273
N -0.208614 1.707266 0.820931
C -1.308618 1.128195 0.360297
C -2.614068 1.754152 0.472302
O -3.661845 1.276014 0.07085
H -1.513071 -1.886197 -1.173221
H -2.541394 -0.524345 -1.646168
H -2.7807 -1.298573 -0.085598
H 0.729434 -2.243552 -1.013754
H 3.131425 -2.033802 -0.53334
H 4.047773 -0.058497 0.600483
H 2.56583 1.807639 1.303756
H -2.568422 2.737716 0.972291
*