# Input file for Orca calculation for diamine
!B97-3c LARGEPRINT Opt Freq
%MaxCore 900
%pal nprocs 5 end

* xyz 0 1
C      4.084753   -0.300269   -0.966839
C      2.623735   -0.291165   -1.430588
O      1.781785    0.026205   -0.314516
C      0.403704    0.014218   -0.685998
C     -0.449898    0.355121    0.530238
O     -1.828204    0.348885    0.159459
C     -2.671336    0.662715    1.273160
C     -4.135096    0.660044    0.813998
N     -4.530758   -0.630056    0.236395
N      4.324379   -1.364358    0.013323
H      4.324324    0.661163   -0.499326
H      4.749846   -0.444999   -1.823548
H      2.493113    0.471142   -2.206956
H      2.345922   -1.269213   -1.841165
H      0.222852    0.744692   -1.483622
H      0.125226   -0.975064   -1.068514
H     -0.168968    1.342507    0.915827
H     -0.271310   -0.377845    1.326115
H     -2.521861   -0.079708    2.065961
H     -2.412705    1.654738    1.660306
H     -4.279380    1.428337    0.046754
H     -4.792079    0.897271    1.656603
H     -3.864298   -0.832527   -0.514413
H     -4.371971   -1.366163    0.923252
H      3.603975   -1.283152    0.734854
H      5.214251   -1.196232    0.479240
*