# Input file for Orca single point energy calculation.
! RIJK RI-PWPB95 D3BJ def2-TZVP def2/JK def2-TZVP/C TIGHTSCF
%MaxCore 900
%pal nprocs 5 end

* xyz -1 2
C -2.208513 -1.154236 0.233479
C -0.980396 -0.31885 0.058359
C -1.07189 1.040485 -0.257868
C 0.082009 1.78828 -0.4127
C 1.307982 1.166618 -0.24953
C 1.313866 -0.186638 0.063148
N 0.200659 -0.918868 0.215251
C 2.584561 -0.924278 0.253309
O 3.688072 -0.428853 0.157599
H -2.840346 -0.763408 1.031226
H -2.810653 -1.165639 -0.675253
H -1.93058 -2.173932 0.478432
H -2.044629 1.499368 -0.379139
H 0.024844 2.840639 -0.656915
H 2.245342 1.693423 -0.356179
H 2.439672 -1.994112 0.496783
*