# Input file for Orca calculation for diamine
!B97-3c LARGEPRINT Opt Freq
%MaxCore 900
%pal nprocs 5 end

* xyz 0 1
C      3.883102    1.329969    1.331329
C      4.483571    0.128950    0.971974
C      3.772996   -0.805431    0.216662
C      2.471078   -0.538562   -0.228195
C      1.843986    0.653098    0.186397
C      2.567114    1.586253    0.950914
C      0.397283    0.949268   -0.140834
C     -0.553054    0.256006    0.841058
C     -1.943826    0.119406    0.262402
C     -2.912001    1.082331    0.599432
C     -4.188791    1.035335    0.042817
C     -4.505361    0.039673   -0.874019
C     -3.550215   -0.918335   -1.218109
C     -2.282023   -0.924269   -0.621652
N     -1.320161   -1.837371   -1.093339
N      1.759530   -1.562290   -0.881726
H      4.430086    2.057569    1.924727
H      5.499249   -0.089699    1.289751
H      4.248572   -1.752091   -0.026145
H      2.098830    2.516052    1.266362
H      0.220430    2.033114   -0.113814
H      0.197697    0.668550   -1.181856
H     -0.189374   -0.732963    1.144441
H     -0.590434    0.829795    1.777058
H     -2.667719    1.885755    1.290922
H     -4.926960    1.787037    0.308836
H     -5.489487    0.014201   -1.333625
H     -3.806445   -1.668865   -1.961307
H     -1.733991   -2.697691   -1.440207
H     -0.586199   -2.038258   -0.414072
H      2.365825   -2.191171   -1.400032
H      1.006693   -1.215367   -1.476148
*