# Input file for Orca calculation for diamine
!B97-3c LARGEPRINT Opt Freq
%MaxCore 900
%pal nprocs 5 end

* xyz 0 1
C      2.463265    0.053989   -0.177436
C      0.997438   -0.192122   -0.099109
N      0.092679    0.745737    0.088070
C     -1.178801    0.181543    0.111332
C     -1.205103   -1.189399   -0.061355
S      0.385860   -1.790657   -0.256998
C     -2.358845    1.007585    0.304865
O     -3.506391    0.571459    0.335169
H      2.859914   -0.262793   -1.147207
H      2.991683   -0.487143    0.613822
H      2.678399    1.120681   -0.057640
H     -2.066614   -1.843025   -0.080163
H     -2.153484    2.084144    0.426649
*