# Input file for Orca single point energy calculation.
! RIJK RI-PWPB95 D3BJ def2-TZVP def2/JK def2-TZVP/C TIGHTSCF
%MaxCore 900
%pal nprocs 5 end

* xyz -1 2
C 0.070708 1.804052 -1.151872
C 1.178984 0.972186 -1.100388
C 1.150281 -0.199566 -0.34726
C -0.02023 -0.520584 0.334225
C -1.146305 0.296175 0.288061
C -1.083078 1.470645 -0.458668
C -2.426029 -0.119953 0.962728
N -3.328087 -0.925152 0.131965
C 2.379048 -1.058419 -0.210316
N 3.265746 -0.695739 0.900976
H 0.106259 2.71535 -1.734677
H 2.07695 1.234895 -1.647631
H -0.055729 -1.435374 0.918672
H -1.945389 2.126169 -0.499382
H -2.202193 -0.696023 1.861015
H -2.976857 0.762462 1.28913
H -2.835101 -1.751716 -0.186017
H -3.557301 -0.405888 -0.707808
H 2.089759 -2.100892 -0.075027
H 2.965473 -1.015216 -1.128335
H 2.740129 -0.72775 1.767061
H 3.55296 0.270339 0.793549
*