# Input file for Orca single point energy calculation.
! RIJK RI-PWPB95 D3BJ def2-TZVP def2/JK def2-TZVP/C TIGHTSCF
%MaxCore 900
%pal nprocs 5 end

* xyz +1 2
C -2.881631 0.005475 -0.543888
C -1.907813 -0.95262 -0.583569
C -0.579696 -0.586987 -0.296138
C 0.500317 -1.492037 -0.307496
C 1.752914 -1.038485 -0.014093
C 1.91616 0.329717 0.291103
N 0.933941 1.212517 0.313847
C -0.314144 0.781053 0.025775
N -1.29513 1.71731 0.059803
C -2.518952 1.327864 -0.215802
C 3.260454 0.871316 0.617206
O 4.273424 0.205237 0.644032
H -3.91423 -0.232874 -0.757889
H -2.139731 -1.981234 -0.83053
H 0.322642 -2.533047 -0.548072
H 2.618669 -1.684513 -0.006796
H -3.283682 2.096716 -0.181229
H 3.256488 1.954592 0.837795
*