# Input file for Orca single point energy calculation.
! RIJK RI-PWPB95 D3BJ def2-TZVP def2/JK def2-TZVP/C TIGHTSCF
%MaxCore 900
%pal nprocs 5 end

* xyz +1 2
C 2.576437 0.973943 -0.833756
O 2.177799 -0.190007 -0.102011
C 0.858418 -0.366092 0.096416
C 0.476703 -1.511117 0.812932
C -0.866688 -1.720889 1.032675
C -1.79193 -0.804052 0.544613
C -1.312707 0.293549 -0.149748
N -0.004356 0.515572 -0.374565
C -2.228117 1.3172 -0.702269
O -3.43682 1.288163 -0.601077
H 2.153642 0.969496 -1.836169
H 3.658862 0.924065 -0.880839
H 2.261515 1.882646 -0.325099
H 1.232033 -2.194606 1.17196
H -1.194798 -2.593472 1.581129
H -2.855502 -0.921311 0.689144
H -1.704492 2.136909 -1.231423
*