# Input file for Orca calculation for diamine
!B97-3c LARGEPRINT Opt Freq
%MaxCore 900
%pal nprocs 5 end

* xyz 0 1
C     -3.867905   -0.370627   -2.140807
C     -2.683815   -0.537104   -2.874319
C     -1.439382   -0.431355   -2.250833
C     -1.400273   -0.155888   -0.886407
C     -2.592659    0.009672   -0.148672
C     -3.827777   -0.095858   -0.770795
C     -2.268183    0.282626    1.232700
C     -3.102712    0.512608    2.316379
C     -2.527295    0.755189    3.567016
C     -1.133548    0.766652    3.725639
C     -0.291250    0.535422    2.636788
C     -0.865297    0.292125    1.391660
C     -0.155068    0.009326    0.034584
C      0.712172    1.255124   -0.313156
C      0.211966    2.330886   -1.068397
C      1.000170    3.456295   -1.341829
C      2.287676    3.573832   -0.821437
C      2.810012    2.503382   -0.098982
C      2.027358    1.376471    0.178705
N      3.108516    4.643273   -1.196743
C      0.629332   -1.335788    0.013989
C      0.376765   -2.366284    0.937108
C      1.072408   -3.580923    0.879619
C      1.995719   -3.831406   -0.133817
C      2.281455   -2.809546   -1.036477
C      1.589167   -1.593939   -0.985231
N      2.770216   -4.996786   -0.114298
H     -4.827734   -0.458302   -2.644461
H     -2.736535   -0.752219   -3.939058
H     -0.527793   -0.558922   -2.825374
H     -4.750721    0.029369   -0.214651
H     -4.181953    0.507778    2.206746
H     -3.166622    0.939026    4.427300
H     -0.705520    0.959198    4.706682
H      0.785843    0.543403    2.767830
H     -0.802230    2.318297   -1.461290
H      0.586422    4.247550   -1.961374
H      3.833521    2.535353    0.264618
H      2.468368    0.582147    0.778638
H      2.595280    5.488766   -1.424979
H      3.870449    4.818258   -0.549416
H     -0.366893   -2.247987    1.722027
H      0.872565   -4.335282    1.636000
H      3.043675   -2.948897   -1.798316
H      1.822164   -0.840145   -1.735475
H      2.309071   -5.783684    0.331235
H      3.160880   -5.241083   -1.018673
*