# Input file for Orca single point energy calculation.
! RIJK RI-PWPB95 D3BJ def2-TZVP def2/JK def2-TZVP/C TIGHTSCF
%MaxCore 900
%pal nprocs 5 end

* xyz 0 1
C 3.855618 1.419218 1.311602
C 4.490525 0.221066 1.020777
C 3.824336 -0.764178 0.31328
C 2.510138 -0.575254 -0.117052
C 1.854466 0.632947 0.180951
C 2.54902 1.607795 0.886443
C 0.420885 0.839281 -0.197889
C -0.550246 0.147074 0.777342
C -1.950295 0.100605 0.249425
C -2.891795 1.039175 0.653461
C -4.175312 1.068167 0.128787
C -4.53166 0.129066 -0.827373
C -3.615891 -0.822167 -1.241819
C -2.324842 -0.854522 -0.712645
N -1.396313 -1.787052 -1.188191
N 1.834768 -1.607152 -0.777065
H 4.370882 2.19765 1.857216
H 5.510536 0.051023 1.339918
H 4.327435 -1.696319 0.083682
H 2.044158 2.540782 1.107436
H 0.190052 1.903599 -0.217048
H 0.221645 0.480473 -1.209509
H -0.175061 -0.853543 0.999798
H -0.527429 0.682789 1.725535
H -2.603107 1.767814 1.40177
H -4.886781 1.809927 0.464556
H -5.527631 0.13046 -1.250694
H -3.901942 -1.5581 -1.984338
H -1.825477 -2.586873 -1.625833
H -0.719241 -2.088775 -0.503393
H 2.453272 -2.27853 -1.203784
H 1.145287 -1.296446 -1.445341
*