# Input file for Orca single point energy calculation.
! RIJK RI-PWPB95 D3BJ def2-TZVP def2/JK def2-TZVP/C TIGHTSCF
%MaxCore 900
%pal nprocs 5 end

* xyz -1 2
C 2.550592 -1.02439 0.067226
C 1.449191 -1.834263 0.090044
C 0.152307 -1.280244 0.065306
C -0.978883 -2.121491 0.11142
C -2.239233 -1.593381 0.065542
C -2.421431 -0.215786 -0.074129
C -1.347729 0.651161 -0.140627
C -0.016839 0.142771 -0.007157
C 1.156743 0.958926 0.058664
C 2.404017 0.364494 0.065929
N 1.070243 2.357297 0.074206
N -1.590052 2.022542 -0.296428
H 3.544737 -1.451738 0.080525
H 1.553663 -2.910347 0.128408
H -0.828703 -3.190541 0.181943
H -3.105565 -2.240654 0.106361
H -3.42453 0.183696 -0.16499
H 3.284891 0.994297 0.103788
H 1.947495 2.789043 0.318908
H 0.328552 2.709926 0.660606
H -2.542164 2.211206 -0.568087
H -0.947302 2.477475 -0.927457
*