# Input file for Orca single point energy calculation.
! RIJK RI-PWPB95 D3BJ def2-TZVP def2/JK def2-TZVP/C TIGHTSCF
%MaxCore 900
%pal nprocs 5 end

* xyz -1 2
C 3.665475 0.627138 -2.356823
C 2.357336 0.305423 -2.757433
C 1.394673 0.003224 -1.829898
C 1.690615 0.004957 -0.44866
C 3.020055 0.33649 -0.044201
C 3.985102 0.64174 -1.024126
C 3.317893 0.350387 1.334801
C 2.367137 0.052672 2.266055
C 1.044409 -0.27059 1.877921
C 0.709442 -0.297169 0.530158
C -0.677667 -0.634184 0.135027
C -1.672893 0.374336 0.067782
C -1.384094 1.73253 0.333583
C -2.365238 2.688144 0.272291
C -3.68619 2.341868 -0.059312
C -3.999532 1.034291 -0.32661
C -3.016932 0.026688 -0.272251
C -3.311357 -1.326713 -0.541523
C -2.343166 -2.284856 -0.485044
C -1.009525 -1.954873 -0.140969
N -0.046361 -2.945256 -0.148376
N 0.120279 -0.622067 2.850044
H 4.414806 0.863436 -3.10047
H 2.1081 0.296635 -3.810576
H 0.391059 -0.244136 -2.145843
H 4.989829 0.891084 -0.704835
H 4.323049 0.600279 1.651283
H 2.617529 0.060366 3.320006
H -0.368388 2.008815 0.579797
H -2.11906 3.722329 0.475588
H -4.449583 3.106911 -0.106057
H -5.014065 0.756942 -0.586276
H -4.326526 -1.600303 -0.801281
H -2.586166 -3.3166 -0.708331
H -0.373196 -3.872445 0.063063
H 0.803121 -2.710476 0.339825
H 0.269585 -0.199 3.750747
H -0.839552 -0.548018 2.550918
*