# Input file for Orca single point energy calculation.
! RIJK RI-PWPB95 D3BJ def2-TZVP def2/JK def2-TZVP/C TIGHTSCF
%MaxCore 900
%pal nprocs 5 end

* xyz +1 2
C -2.100491 0.312768 0.623133
C -0.795242 -0.070052 0.020012
C -0.616127 -0.953569 -1.016177
S 1.042481 -1.127543 -1.424578
C 1.406999 0.022036 -0.151807
N 0.362201 0.470964 0.494956
C 2.777409 0.424725 0.137744
O 3.753082 0.011759 -0.457868
H -2.261841 1.38635 0.536769
H -2.926686 -0.199845 0.138102
H -2.118161 0.068964 1.684421
H -1.374878 -1.5011 -1.549245
H 2.851254 1.154543 0.964535
*