# Input file for Orca calculation for diamine
!B97-3c LARGEPRINT Opt Freq
%MaxCore 900
%pal nprocs 5 end

* xyz 0 1
C     -2.033374   -0.984105   -0.806939
N     -1.056829   -0.101276   -0.214224
C      0.296453   -0.325804   -0.117077
C      1.131105   -1.378491   -0.514430
C      2.497880   -1.250490   -0.238867
C      3.004890   -0.120958    0.404573
C      2.155008    0.920476    0.793939
C      0.782450    0.809753    0.526124
N     -0.231204    1.689800    0.809421
C     -1.333726    1.122511    0.355033
C     -2.626159    1.755364    0.471541
O     -3.689498    1.285003    0.071698
H     -1.547906   -1.886597   -1.183211
H     -2.515735   -0.461877   -1.637095
H     -2.762740   -1.260123   -0.041177
H      0.749324   -2.261483   -1.015173
H      3.177744   -2.048022   -0.532552
H      4.070691   -0.046254    0.606895
H      2.541661    1.801318    1.294362
H     -2.610035    2.741256    0.967160
*