# Input file for Orca calculation for diamine
!B97-3c LARGEPRINT Opt Freq
%MaxCore 900
%pal nprocs 5 end

* xyz 0 1
C     -1.343207   -1.063507    0.123899
N     -0.041795   -0.443059    0.063606
C      1.157624   -1.088485    0.185446
C      2.107382   -0.103427    0.063871
N      1.517125    1.118716   -0.127918
C      0.213948    0.894580   -0.125427
C     -0.755241    1.949735   -0.301652
O     -1.976061    1.802268   -0.308427
H     -1.857564   -0.888717   -0.824259
H     -1.225814   -2.138675    0.283318
H     -1.898843   -0.628893    0.958463
H      1.237227   -2.155183    0.342755
H      3.184076   -0.209421    0.104250
H     -0.318857    2.954068   -0.437924
*